certificates/rado_a15_c176_N40.cnf
c Rad2 upper bound instance: x1 + 15*x2 - x3 = 176, interval [1,40]
p cnf 40 212
1 5 12 0
-1 -5 -12 0
1 13 20 0
-1 -13 -20 0
1 14 35 0
-1 -14 -35 0
2 6 12 0
-2 -6 -12 0
2 13 21 0
-2 -13 -21 0
2 14 36 0
-2 -14 -36 0
3 7 12 0
-3 -7 -12 0
3 13 22 0
-3 -13 -22 0
3 14 37 0
-3 -14 -37 0
4 8 12 0
-4 -8 -12 0
4 13 23 0
-4 -13 -23 0
4 14 38 0
-4 -14 -38 0
5 9 12 0
-5 -9 -12 0
5 13 24 0
-5 -13 -24 0
5 14 39 0
-5 -14 -39 0
6 10 12 0
-6 -10 -12 0
6 13 25 0
-6 -13 -25 0
6 14 40 0
-6 -14 -40 0
7 11 12 0
-7 -11 -12 0
7 13 26 0
-7 -13 -26 0
8 12 0
-8 -12 0
8 13 27 0
-8 -13 -27 0
9 12 13 0
-9 -12 -13 0
9 13 28 0
-9 -13 -28 0
10 12 14 0
-10 -12 -14 0
10 13 29 0
-10 -13 -29 0
11 12 15 0
-11 -12 -15 0
11 13 30 0
-11 -13 -30 0
1 11 12 0
-1 -11 -12 0
12 16 0
-12 -16 0
12 13 31 0
-12 -13 -31 0
2 11 13 0
-2 -11 -13 0
12 13 17 0
-12 -13 -17 0
13 32 0
-13 -32 0
3 11 14 0
-3 -11 -14 0
12 14 18 0
-12 -14 -18 0
13 14 33 0
-13 -14 -33 0
4 11 15 0
-4 -11 -15 0
12 15 19 0
-12 -15 -19 0
13 15 34 0
-13 -15 -34 0
5 11 16 0
-5 -11 -16 0
12 16 20 0
-12 -16 -20 0
13 16 35 0
-13 -16 -35 0
6 11 17 0
-6 -11 -17 0
12 17 21 0
-12 -17 -21 0
13 17 36 0
-13 -17 -36 0
7 11 18 0
-7 -11 -18 0
12 18 22 0
-12 -18 -22 0
13 18 37 0
-13 -18 -37 0
8 11 19 0
-8 -11 -19 0
12 19 23 0
-12 -19 -23 0
13 19 38 0
-13 -19 -38 0
9 11 20 0
-9 -11 -20 0
12 20 24 0
-12 -20 -24 0
13 20 39 0
-13 -20 -39 0
10 11 21 0
-10 -11 -21 0
12 21 25 0
-12 -21 -25 0
13 21 40 0
-13 -21 -40 0
11 22 0
-11 -22 0
12 22 26 0
-12 -22 -26 0
11 12 23 0
-11 -12 -23 0
12 23 27 0
-12 -23 -27 0
11 13 24 0
-11 -13 -24 0
12 24 28 0
-12 -24 -28 0
11 14 25 0
-11 -14 -25 0
12 25 29 0
-12 -25 -29 0
11 15 26 0
-11 -15 -26 0
12 26 30 0
-12 -26 -30 0
1 10 27 0
-1 -10 -27 0
11 16 27 0
-11 -16 -27 0
12 27 31 0
-12 -27 -31 0
2 10 28 0
-2 -10 -28 0
11 17 28 0
-11 -17 -28 0
12 28 32 0
-12 -28 -32 0
3 10 29 0
-3 -10 -29 0
11 18 29 0
-11 -18 -29 0
12 29 33 0
-12 -29 -33 0
4 10 30 0
-4 -10 -30 0
11 19 30 0
-11 -19 -30 0
12 30 34 0
-12 -30 -34 0
5 10 31 0
-5 -10 -31 0
11 20 31 0
-11 -20 -31 0
12 31 35 0
-12 -31 -35 0
6 10 32 0
-6 -10 -32 0
11 21 32 0
-11 -21 -32 0
12 32 36 0
-12 -32 -36 0
7 10 33 0
-7 -10 -33 0
11 22 33 0
-11 -22 -33 0
12 33 37 0
-12 -33 -37 0
8 10 34 0
-8 -10 -34 0
11 23 34 0
-11 -23 -34 0
12 34 38 0
-12 -34 -38 0
9 10 35 0
-9 -10 -35 0
11 24 35 0
-11 -24 -35 0
12 35 39 0
-12 -35 -39 0
10 36 0
-10 -36 0
11 25 36 0
-11 -25 -36 0
12 36 40 0
-12 -36 -40 0
10 11 37 0
-10 -11 -37 0
11 26 37 0
-11 -26 -37 0
10 12 38 0
-10 -12 -38 0
11 27 38 0
-11 -27 -38 0
10 13 39 0
-10 -13 -39 0
11 28 39 0
-11 -28 -39 0
10 14 40 0
-10 -14 -40 0
11 29 40 0
-11 -29 -40 0
