certificates/rado_a15_c176_N40.drat
-36 -40 0
12 7 13 -10 0
-39 -40 0
-40 0
-10 -12 0
d -6 -10 -12 0
-12 0
8 0
16 0
36 0
-10 0
6 0
14 0
38 0
-2 0
-4 0
28 0
30 0
39 0
-5 0
-11 0
1 0
9 0
31 0
7 0
15 0
22 0
23 0
29 0
37 0
21 0
13 0
-35 0
-20 0
0
